data;
param nbVertex:=20;
param nbColorFeasible:=5;
param cardCliqueMax:=4;

param graph:
 1 2 3 4 5 6 7 8 9 10 11 12 13 14 15 16 17 18 19 20 :=
 1 0 1 1 0 1 0 0 0 1 0 0 0 0 0 1 1 0 0 0 0
 2 1 0 0 1 1 1 1 0 0 1 1 1 0 1 1 0 0 1 0 1
 3 1 0 0 1 0 1 0 0 0 0 0 1 1 1 0 0 1 1 0 0
 4 0 1 1 0 0 1 0 1 0 0 0 1 1 0 0 0 1 0 0 0
 5 1 1 0 0 0 1 1 0 1 1 0 0 0 0 1 1 1 0 0 0
 6 0 1 1 1 1 0 0 1 1 0 0 0 0 0 1 1 1 1 0 1
 7 0 1 0 0 1 0 0 1 1 0 0 0 1 0 1 1 0 1 1 1
 8 0 0 0 1 0 1 1 0 1 0 0 1 0 1 0 1 0 1 1 0
 9 1 0 0 0 1 1 1 1 0 1 0 0 1 1 0 0 1 1 0 0
 10 0 1 0 0 1 0 0 0 1 0 1 1 1 0 0 0 1 1 1 0
 11 0 1 0 0 0 0 0 0 0 1 0 0 0 0 1 0 0 1 0 1
 12 0 1 1 1 0 0 0 1 0 1 0 0 1 1 0 1 0 1 1 0
 13 0 0 1 1 0 0 1 0 1 1 0 1 0 0 0 0 1 1 0 1
 14 0 1 1 0 0 0 0 1 1 0 0 1 0 0 1 0 0 0 0 1
 15 1 1 0 0 1 1 1 0 0 0 1 0 0 1 0 0 0 0 0 1
 16 1 0 0 0 1 1 1 1 0 0 0 1 0 0 0 0 1 0 1 1
 17 0 0 1 1 1 1 0 0 1 1 0 0 1 0 0 1 0 0 0 1
 18 0 1 1 0 0 1 1 1 1 1 1 1 1 0 0 0 0 0 0 0
 19 0 0 0 0 0 0 1 1 0 1 0 1 0 0 0 1 0 0 0 1
 20 0 1 0 0 0 1 1 0 0 0 1 0 1 1 1 1 1 0 1 0
;

param cliqueColors :=
1 0
2 1
3 0
4 0
5 2
6 0
7 3
8 0
9 0
10 0
11 0
12 0
13 0
14 0
15 4
16 0
17 0
18 0
19 0
20 0
;

end;
